 NOTE: Siesta V5 introduces some new defaults for basis-set generation
 NOTE: which might lead to slightly different numerical results.
 NOTE: Please see the manual for full details and compatibility measures.

reinit: Reading from file silicene.fdf

reinit: -----------------------------------------------------------------------
reinit: System Name:
reinit: -----------------------------------------------------------------------
reinit: System Label: siesta
reinit: -----------------------------------------------------------------------

initatom: Reading input for the pseudopotentials and atomic orbitals ----------
Species number:   1 Atomic number:   14 Label: Si

Ground state valence configuration (from tables):   3s02  3p02  3d00  4f00

---- Processing specs for species: Si
Reading pseudopotential information in PSML from:
  Si.psml
PSML file version: 1.1
GGA--PBE XC_GGA_X_PBE--XC_GGA_C_PBE pb
PSML uuid: 78f1be70-be41-11e7-6330-179677bb7285

---- Pseudopotential check for Si

Pseudized shells:
3s( 2.00) rc: 1.60
3p( 2.00) rc: 1.72
3d( 0.00) rc: 1.92
Valence configuration for ps generation: 3s:3p: Total charge:   4.000000
For Si, standard SIESTA heuristics set lmxkb to 3
 (one more than the basis l, including polarization orbitals).
Use PS.lmax or PS.KBprojectors blocks to override.
Si pseudopotential only contains V_ls up to l=2 -- lmxkb reset.

<basis_specs>
Si                   Z=  14    Mass=  28.090        Charge= 0.17977+309
Lmxo=2 Lmxkb= 2    BasisType=split      Semic=F
L=0  Nsemic=0  Cnfigmx=3
          i=1  nzeta=2  polorb=0  (3s)
            splnorm:   0.15000
               vcte:    40.000
               rinn:  -0.90000
               qcoe:    0.0000
               qyuk:    0.0000
               qwid:   0.10000E-01
                rcs:    0.0000      0.0000
            lambdas:    1.0000      1.0000
L=1  Nsemic=0  Cnfigmx=3
          i=1  nzeta=2  polorb=1  (3p)  (to be polarized perturbatively)
            splnorm:   0.15000
               vcte:    40.000
               rinn:  -0.90000
               qcoe:    0.0000
               qyuk:    0.0000
               qwid:   0.10000E-01
                rcs:    0.0000      0.0000
            lambdas:    1.0000      1.0000
L=2  Nsemic=0  Cnfigmx=3
          i=1  nzeta=0  polorb=0  (3d)  (perturbative polarization orbital) (from 3p)
L=0  Nkbl=1  erefs: 0.17977+309
L=1  Nkbl=1  erefs: 0.17977+309
L=2  Nkbl=1  erefs: 0.17977+309
</basis_specs>

Using PAO.SplitTailNorm
atom: Called for Si                    (Z =  14)
Maximum radius (at nrval) set to   50.00000 8518

read_vps: Pseudopotential generation method:
read_vps: ONCVPSP-3.Hamann's oncvpsp
Valence charge in pseudo generation:    4.00000

read_vps: Pseudopotential includes a core correction:
read_vps: Pseudo-core for xc-correction

xc_check: Exchange-correlation functional:
xc_check: Ceperley-Alder
xc_check: WARNING: Pseudopotential generated with GGA PBE functional
Got Vlocal (oncv-fit) from psml data
Choosing vlocal chloc cutoff:  4.644478
qtot up to nchloc:    4.00055554
atom: Maximum radius for chlocal:    4.64448
atom: Maximum radius for r*vlocal+2*Zval:    4.64448
Reading KB projs from Si psml data
Using scalar-relativistic projectors in PSML file

PSML: Kleinman-Bylander projectors:
   l= 0   rc=  1.623671   Ekb= 10.337930
   l= 0   rc=  1.623671   Ekb=  1.659765
   l= 1   rc=  1.743879   Ekb=  5.142565
   l= 1   rc=  1.743879   Ekb=  1.156614
   l= 2   rc=  1.941952   Ekb= -4.854621
   l= 2   rc=  1.941952   Ekb= -0.976194

PSML: Total number of  Kleinman-Bylander projectors:  18
atom: -------------------------------------------------------------------------

atom: SANKEY-TYPE ORBITALS:
atom: Selected multiple-zeta basis: split

SPLIT: Orbitals with angular momentum L= 0

SPLIT: Basis orbitals for state 3s

SPLIT: PAO cut-off radius determined from an
SPLIT: energy shift=  0.010000 Ry
Split based on tail norm

   izeta = 1
                 lambda =    1.000000
                     rc =    5.435719
                 energy =   -0.774689
                kinetic =    0.579641
    potential(screened) =   -1.354330
       potential(ionic) =   -3.775381

   izeta = 2
                 rmatch =    3.881637
              splitnorm =    0.150000
                 energy =   -0.478054
                kinetic =    1.231045
    potential(screened) =   -1.709098
       potential(ionic) =   -4.276563

SPLIT: Orbitals with angular momentum L= 1

SPLIT: Basis orbitals for state 3p

SPLIT: PAO cut-off radius determined from an
SPLIT: energy shift=  0.010000 Ry
Split based on tail norm

   izeta = 1
                 lambda =    1.000000
                     rc =    6.899034
                 energy =   -0.285823
                kinetic =    0.828975
    potential(screened) =   -1.114798
       potential(ionic) =   -3.324432

   izeta = 2
                 rmatch =    5.012008
              splitnorm =    0.150000
                 energy =   -0.180681
                kinetic =    1.256538
    potential(screened) =   -1.437220
       potential(ionic) =   -3.850830

POLgen: Perturbative polarization orbital with L=  2

POLgen: Polarization orbital for state 3p
Split based on tail norm

   izeta = 1
                     rc =    6.899034
                 energy =    0.327663
                kinetic =    1.476105
    potential(screened) =   -1.148442
       potential(ionic) =   -3.242310
atom: Total number of Sankey-type orbitals: 13

atm_pop: Valence configuration (for local Pseudopot. screening):
 3s( 2.00)
 3p( 2.00)
 3d( 0.00)
Vna: chval, zval:    4.00000   4.00000

Vna:  Cut-off radius for the neutral-atom potential:   6.899034
comcore: Pseudo-core radius Rcore=  2.875880

atom: _________________________________________________________________________

prinput: Basis input

PAO.BasisType split

%block ChemicalSpeciesLabel
    1   14 Si                      # Species index, atomic number, species label
%endblock ChemicalSpeciesLabel

%block PAO.Basis                 # Define Basis set
# WARNING: This information might be incomplete!
Si                    2                    # Species label, number of l-shells
 n=3   0   2                         # n, l, Nzeta
   5.436      3.882
   1.000      1.000
 n=3   1   2 P   1                   # n, l, Nzeta, Polarization, NzetaPol
   6.899      5.012
   1.000      1.000
%endblock PAO.Basis

prinput: ----------------------------------------------------------------------

Dumping basis to NetCDF file Si.ion.nc
coor:   Atomic-coordinates input format  =     Cartesian coordinates
coor:                                          (in Angstroms)

siesta: Atomic coordinates (Bohr) and species
siesta:      0.00000   0.00000  -0.42235  1        1
siesta:      3.64245   2.10297   0.42235  1        2
siesta:      7.28489   0.00000  -0.42235  1        3
siesta:     10.92734   2.10297   0.42235  1        4
siesta:     14.56979   0.00000  -0.42235  1        5
siesta:     18.21224   2.10297   0.42235  1        6
siesta:     21.85468   0.00000  -0.42235  1        7
siesta:     25.49713   2.10297   0.42235  1        8
siesta:     29.13958   0.00000  -0.42235  1        9
siesta:     32.78202   2.10297   0.42235  1       10
siesta:     36.42447   0.00000  -0.42235  1       11
siesta:     40.06692   2.10297   0.42235  1       12
siesta:     -3.64245   6.30890  -0.42235  1       13
siesta:      0.00000   8.41187   0.42235  1       14
siesta:      3.64245   6.30890  -0.42235  1       15
siesta:      7.28489   8.41187   0.42235  1       16
siesta:     10.92734   6.30890  -0.42235  1       17
siesta:     14.56979   8.41187   0.42235  1       18
siesta:     18.21224   6.30890  -0.42235  1       19
siesta:     21.85468   8.41187   0.42235  1       20
siesta:     25.49713   6.30890  -0.42235  1       21
siesta:     29.13958   8.41187   0.42235  1       22
siesta:     32.78202   6.30890  -0.42235  1       23
siesta:     36.42447   8.41187   0.42235  1       24
siesta:     -7.28489  12.61781  -0.42235  1       25
siesta:     -3.64245  14.72077   0.42235  1       26
siesta:      0.00000  12.61781  -0.42235  1       27
siesta:      3.64245  14.72077   0.42235  1       28
siesta:      7.28489  12.61781  -0.42235  1       29
siesta:     10.92734  14.72077   0.42235  1       30
siesta:     14.56979  12.61781  -0.42235  1       31
siesta:     18.21224  14.72077   0.42235  1       32
siesta:     21.85468  12.61781  -0.42235  1       33
siesta:     25.49713  14.72077   0.42235  1       34
siesta:     29.13958  12.61781  -0.42235  1       35
siesta:     32.78202  14.72077   0.42235  1       36
siesta:    -10.92734  18.92671  -0.42235  1       37
siesta:     -7.28489  21.02968   0.42235  1       38
siesta:     -3.64245  18.92671  -0.42235  1       39
siesta:      0.00000  21.02968   0.42235  1       40
siesta:      3.64245  18.92671  -0.42235  1       41
siesta:      7.28489  21.02968   0.42235  1       42
siesta:     10.92734  18.92671  -0.42235  1       43
siesta:     14.56979  21.02968   0.42235  1       44
siesta:     18.21224  18.92671  -0.42235  1       45
siesta:     21.85468  21.02968   0.42235  1       46
siesta:     25.49713  18.92671  -0.42235  1       47
siesta:     29.13958  21.02968   0.42235  1       48
siesta:    -14.56979  25.23561  -0.42235  1       49
siesta:    -10.92734  27.33858   0.42235  1       50
siesta:     -7.28489  25.23561  -0.42235  1       51
siesta:     -3.64245  27.33858   0.42235  1       52
siesta:      0.00000  25.23561  -0.42235  1       53
siesta:      3.64245  27.33858   0.42235  1       54
siesta:      7.28489  25.23561  -0.42235  1       55
siesta:     10.92734  27.33858   0.42235  1       56
siesta:     14.56979  25.23561  -0.42235  1       57
siesta:     18.21224  27.33858   0.42235  1       58
siesta:     21.85468  25.23561  -0.42235  1       59
siesta:     25.49713  27.33858   0.42235  1       60
siesta:    -18.21224  31.54452  -0.42235  1       61
siesta:    -14.56979  33.64749   0.42235  1       62
siesta:    -10.92734  31.54452  -0.42235  1       63
siesta:     -7.28489  33.64749   0.42235  1       64
siesta:     -3.64245  31.54452  -0.42235  1       65
siesta:      0.00000  33.64749   0.42235  1       66
siesta:      3.64245  31.54452  -0.42235  1       67
siesta:      7.28489  33.64749   0.42235  1       68
siesta:     10.92734  31.54452  -0.42235  1       69
siesta:     14.56979  33.64749   0.42235  1       70
siesta:     18.21224  31.54452  -0.42235  1       71
siesta:     21.85468  33.64749   0.42235  1       72

siesta: System type = slab

initatomlists: Number of atoms, orbitals, and projectors:     72   936  1296

siesta: ******************** Simulation parameters ****************************
siesta:
siesta: The following are some of the parameters of the simulation.
siesta: A complete list of the parameters used, including default values,
siesta: can be found in file out.fdf
siesta:
redata: Spin configuration                          = none
redata: Number of spin components                   = 1
redata: Time-Reversal Symmetry                      = T
redata: Spin spiral                                 = F
redata: Long output                                 =   F
redata: Number of Atomic Species                    =        1
[...]
outcell: Cell volume (Ang**3)        :   9266.4181
<dSpData1D:S at geom step 0
  <sparsity:sparsity for geom step 0
    nrows_g=936 nrows=936 sparsity=.3909 nnzs=342432, refcount: 7>
  <dData1D:(new from dSpData1D) n=342432, refcount: 1>
refcount: 1>
new_DM -- step:     1
Initializing Density Matrix...

Attempting to read DM from file... Failed...
DM filled with atomic data:
<dSpData2D:DM initialized from atoms
  <sparsity:sparsity for geom step 0
    nrows_g=936 nrows=936 sparsity=.3909 nnzs=342432, refcount: 8>
  <dData2D:DM n=342432 m=1, refcount: 1>
refcount: 1>
No. of atoms with KB's overlaping orbs in proc 0. Max # of overlaps:      72     130

InitMesh: MESH = 180 x 180 x 180 = 5832000
InitMesh: Mesh cutoff (required, used) =   200.000   223.169 Ry
New grid distribution [1]: sub = 2

stepf: Fermi-Dirac step function

siesta: Program's energy decomposition (eV):
siesta: Ebs     =     -2622.424172
siesta: Eions   =     13962.935141
siesta: Ena     =      4521.172146
siesta: Ekin    =      2910.282363
siesta: Enl     =      1190.697203
siesta: Eso     =         0.000000
siesta: Edftu   =         0.000000
siesta: DEna    =        66.747568
siesta: DUscf   =        11.452408
siesta: DUext   =         0.000000
siesta: Ex      =     -2504.228607
siesta: Ec      =      -441.896590
siesta: Exc     =     -2946.125197
siesta: EbV     =         0.000000
siesta: eta*DQ  =         0.000000
siesta: Emadel  =         0.000000
siesta: Emeta   =         0.000000
siesta: Emolmec =         0.000000
siesta: Ekinion =         0.000000
siesta: Eharris =     -8203.314779
siesta: Etot    =     -8208.708649
siesta: FreeEng =     -8208.851997

SCF Convergence by DM+H criterion
max |DM_out - DM_in|         :     0.0000313928
max |H_out - H_in|      (eV) :     0.0004017530
SCF cycle converged after 8 iterations

Using DM_out to compute the final energy and forces
No. of atoms with KB's overlaping orbs in proc 0. Max # of overlaps:      72     130

siesta: E_KS(eV) =            -8209.3984

siesta: E_KS - E_eggbox =     -8209.3984

siesta: Atomic forces (eV/Ang):
   Tot   -0.000000    0.000000    0.000000
   Max    0.178969
   Res    0.103327    sqrt( Sum f_i^2 / 3N )
   Max    0.178969    constrained

Stress tensor Voigt[x,y,z,yz,xz,xy] (kbar):       -1.94       -1.94       -0.51        0.00       -0.00        0.00
(Free)E + p*V (eV/cell)    -8201.0746
Target enthalpy (eV/cell)    -8209.5418

[...]

outcell: Cell vector modules (Ang)   :   23.130000   23.130000   20.000000
outcell: Cell angles (23,13,12) (deg):     90.0000     90.0000    120.0000
outcell: Cell volume (Ang**3)        :   9266.4181
<dSpData1D:S at geom step 1
  <sparsity:sparsity for geom step 1
    nrows_g=936 nrows=936 sparsity=.3909 nnzs=342432, refcount: 7>
  <dData1D:(new from dSpData1D) n=342432, refcount: 1>
refcount: 1>
new_DM -- step:     2
Re-using DM from previous geometries...
Number of DMs in history: 1
 DM extrapolation coefficients:
1   1.00000
New DM after history re-use:
<dSpData2D:SpM extrapolated using coords
  <sparsity:sparsity for geom step 1
    nrows_g=936 nrows=936 sparsity=.3909 nnzs=342432, refcount: 9>
  <dData2D:(temp array for extrapolation) n=342432 m=1, refcount: 1>
refcount: 1>
Note: For starting DM, Qtot, Tr[D*S] =        288.00000000        287.43527661
No. of atoms with KB's overlaping orbs in proc 0. Max # of overlaps:      72     130

[...]

        iscf     Eharris(eV)        E_KS(eV)     FreeEng(eV)     dDmax    Ef(eV) dHmax(eV)
   scf:    1    -8210.575302    -8209.539148    -8209.682496  0.010043 -4.339675  0.007341
   scf:    2    -8209.539742    -8209.539692    -8209.683040  0.000498 -4.340828  0.004122
   scf:    3    -8209.539948    -8209.539853    -8209.683201  0.000175 -4.340437  0.000778
   scf:    4    -8209.539860    -8209.539857    -8209.683204  0.000018 -4.340499  0.000470

[...]

                        Begin CG opt. move =      4

outcell: Unit cell vectors (Ang):
       23.130000    0.000000    0.000000
      -11.565000   20.031168    0.000000
        0.000000    0.000000   20.000000

outcell: Cell vector modules (Ang)   :   23.130000   23.130000   20.000000
outcell: Cell angles (23,13,12) (deg):     90.0000     90.0000    120.0000
outcell: Cell volume (Ang**3)        :   9266.4181
<dSpData1D:S at geom step 4
  <sparsity:sparsity for geom step 4
    nrows_g=936 nrows=936 sparsity=.3909 nnzs=342432, refcount: 7>
  <dData1D:(new from dSpData1D) n=342432, refcount: 1>
refcount: 1>
new_DM -- step:     5
Re-using DM from previous geometries...
Number of DMs in history: 1
 DM extrapolation coefficients:
1   1.00000
New DM after history re-use:
<dSpData2D:SpM extrapolated using coords
  <sparsity:sparsity for geom step 4
    nrows_g=936 nrows=936 sparsity=.3909 nnzs=342432, refcount: 9>
  <dData2D:(temp array for extrapolation) n=342432 m=1, refcount: 1>
refcount: 1>
Note: For starting DM, Qtot, Tr[D*S] =        288.00000000        289.09856826
No. of atoms with KB's overlaping orbs in proc 0. Max # of overlaps:      72     130

InitMesh: MESH = 180 x 180 x 180 = 5832000
InitMesh: Mesh cutoff (required, used) =   200.000   223.169 Ry
New grid distribution [1]: sub = 2

        iscf     Eharris(eV)        E_KS(eV)     FreeEng(eV)     dDmax    Ef(eV) dHmax(eV)
   scf:    1    -8207.659228    -8209.697568    -8209.840915  0.016463 -4.353340  0.009796
   scf:    2    -8209.696920    -8209.698029    -8209.841376  0.000917 -4.352106  0.041426
   scf:    3    -8209.698175    -8209.698619    -8209.841967  0.000665 -4.352864  0.005232
   scf:    4    -8209.699086    -8209.698863    -8209.842210  0.000131 -4.352597  0.002675
   scf:    5    -8209.699060    -8209.698971    -8209.842319  0.000147 -4.352194  0.001473
   scf:    6    -8209.698978    -8209.698976    -8209.842323  0.000050 -4.351982  0.001321
   scf:    7    -8209.698976    -8209.698976    -8209.842324  0.000017 -4.351967  0.000511

SCF Convergence by DM+H criterion
max |DM_out - DM_in|         :     0.0000169429
max |H_out - H_in|      (eV) :     0.0005105493
SCF cycle converged after 7 iterations

Using DM_out to compute the final energy and forces
No. of atoms with KB's overlaping orbs in proc 0. Max # of overlaps:      72     130

siesta: E_KS(eV) =            -8209.6990

siesta: Atomic forces (eV/Ang):
   Tot   -0.000000   -0.000000   -0.000000
   Max    0.005038
   Res    0.002851    sqrt( Sum f_i^2 / 3N )
   Max    0.005038    constrained

Stress tensor Voigt[x,y,z,yz,xz,xy] (kbar):        0.24        0.24       -0.03       -0.00       -0.00       -0.00
(Free)E + p*V (eV/cell)    -8210.7018
Target enthalpy (eV/cell)    -8209.8423

outcoor: Relaxed atomic coordinates (Ang):
   -0.00000000    0.00000010   -0.26580067   1       1  Si
    1.92750000    1.11284274    0.26580063   1       2  Si
    3.85500000    0.00000010   -0.26580067   1       3  Si
    5.78250000    1.11284274    0.26580063   1       4  Si
    7.71000000    0.00000010   -0.26580067   1       5  Si
    9.63750000    1.11284274    0.26580063   1       6  Si
   11.56500000    0.00000010   -0.26580067   1       7  Si
   13.49250000    1.11284274    0.26580062   1       8  Si
   15.42000000    0.00000010   -0.26580067   1       9  Si
   17.34750000    1.11284274    0.26580062   1      10  Si
   19.27500000    0.00000010   -0.26580067   1      11  Si
   21.20250000    1.11284274    0.26580063   1      12  Si
   -1.92750000    3.33852801   -0.26580055   1      13  Si
   -0.00000000    4.45137053    0.26580055   1      14  Si
    1.92750000    3.33852801   -0.26580056   1      15  Si
    3.85500000    4.45137053    0.26580055   1      16  Si
    5.78250000    3.33852801   -0.26580055   1      17  Si
    7.71000000    4.45137053    0.26580054   1      18  Si
    9.63750000    3.33852801   -0.26580055   1      19  Si
   11.56500000    4.45137053    0.26580054   1      20  Si
   13.49250000    3.33852801   -0.26580055   1      21  Si
   15.42000000    4.45137053    0.26580054   1      22  Si
   17.34750000    3.33852801   -0.26580055   1      23  Si
   19.27500000    4.45137053    0.26580054   1      24  Si
   -3.85500000    6.67705585   -0.26580057   1      25  Si
   -1.92750000    7.78989837    0.26580060   1      26  Si
   -0.00000000    6.67705585   -0.26580057   1      27  Si
    1.92750000    7.78989837    0.26580060   1      28  Si
    3.85500000    6.67705585   -0.26580057   1      29  Si
    5.78250000    7.78989837    0.26580060   1      30  Si
    7.71000000    6.67705585   -0.26580057   1      31  Si
    9.63750000    7.78989837    0.26580060   1      32  Si
   11.56500000    6.67705585   -0.26580057   1      33  Si
   13.49250000    7.78989837    0.26580060   1      34  Si
   15.42000000    6.67705585   -0.26580057   1      35  Si
   17.34750000    7.78989837    0.26580060   1      36  Si
   -5.78250000   10.01558373   -0.26580069   1      37  Si
   -3.85500000   11.12842633    0.26580074   1      38  Si
   -1.92750000   10.01558373   -0.26580069   1      39  Si
    0.00000000   11.12842633    0.26580074   1      40  Si
    1.92750000   10.01558373   -0.26580069   1      41  Si
    3.85500000   11.12842633    0.26580073   1      42  Si
    5.78250000   10.01558373   -0.26580069   1      43  Si
    7.71000000   11.12842633    0.26580073   1      44  Si
    9.63750000   10.01558373   -0.26580069   1      45  Si
   11.56500000   11.12842633    0.26580073   1      46  Si
   13.49250000   10.01558373   -0.26580069   1      47  Si
   15.42000000   11.12842633    0.26580073   1      48  Si
   -7.71000000   13.35411167   -0.26580081   1      49  Si
   -5.78250000   14.46695439    0.26580082   1      50  Si
   -3.85500000   13.35411167   -0.26580081   1      51  Si
   -1.92750000   14.46695439    0.26580082   1      52  Si
    0.00000000   13.35411167   -0.26580081   1      53  Si
    1.92750000   14.46695439    0.26580082   1      54  Si
    3.85500000   13.35411167   -0.26580081   1      55  Si
    5.78250000   14.46695439    0.26580082   1      56  Si
    7.71000000   13.35411167   -0.26580080   1      57  Si
    9.63750000   14.46695439    0.26580082   1      58  Si
   11.56500000   13.35411167   -0.26580080   1      59  Si
   13.49250000   14.46695439    0.26580082   1      60  Si
   -9.63750000   16.69263969   -0.26580079   1      61  Si
   -7.71000000   17.80548241    0.26580076   1      62  Si
   -5.78250000   16.69263969   -0.26580079   1      63  Si
   -3.85500000   17.80548241    0.26580076   1      64  Si
   -1.92750000   16.69263969   -0.26580079   1      65  Si
    0.00000000   17.80548241    0.26580076   1      66  Si
    1.92750000   16.69263969   -0.26580079   1      67  Si
    3.85500000   17.80548241    0.26580076   1      68  Si
    5.78250000   16.69263969   -0.26580079   1      69  Si
    7.71000000   17.80548241    0.26580076   1      70  Si
    9.63750000   16.69263969   -0.26580079   1      71  Si
   11.56500000   17.80548241    0.26580076   1      72  Si

siesta: Program's energy decomposition (eV):
siesta: Ebs     =     -2649.684092
siesta: Eions   =     13962.935141
siesta: Ena     =      4530.377834
siesta: Ekin    =      2867.271817
siesta: Enl     =      1184.941017
siesta: Eso     =         0.000000
siesta: Edftu   =         0.000000
siesta: DEna    =        91.108992
siesta: DUscf   =         9.203856
siesta: DUext   =         0.000000
siesta: Ex      =     -2488.958040
siesta: Ec      =      -440.709311
siesta: Exc     =     -2929.667351
siesta: EbV     =         0.000000
siesta: eta*DQ  =         0.000000
siesta: Emadel  =         0.000000
siesta: Emeta   =         0.000000
siesta: Emolmec =         0.000000
siesta: Ekinion =         0.000000
siesta: Eharris =     -8209.698976
siesta: Etot    =     -8209.698976
siesta: FreeEng =     -8209.842324

siesta: Final energy (eV):
siesta:  Band Struct. =   -2649.684092
siesta:       Kinetic =    2867.271817
siesta:       Hartree =   20384.132022
siesta:         Edftu =       0.000000
siesta:       Eso     =       0.000000
siesta:    Ext. field =       0.000000
siesta:         Exch. =   -2488.958040
siesta:         Corr. =    -440.709311
siesta:     Bulk bias =       0.000000
siesta:   Exch.-corr. =   -2929.667351
siesta:  Ion-electron =  -43233.672781
siesta:       Ion-ion =   14702.237318
siesta:       Ekinion =       0.000000
siesta: D3 dispersion =       0.000000
siesta:         Total =   -8209.698976
siesta:         Fermi =      -4.351967

siesta: Stress tensor (static) (eV/Ang**3):
siesta:     0.000147   -0.000000   -0.000000
siesta:    -0.000000    0.000147   -0.000000
siesta:    -0.000000   -0.000000   -0.000016

siesta: Cell volume =       9266.418127 Ang**3

siesta: Pressure (static):
siesta:                Solid            Molecule  Units
siesta:          -0.00000101         -0.00000105  Ry/Bohr**3
siesta:          -0.00009275         -0.00009632  eV/Ang**3
siesta:          -0.14860987         -0.15432177  kBar
(Free)E+ p_basis*V_orbitals  =       -8153.956868
(Free)Eharris+ p_basis*V_orbitals  =       -8153.956868

siesta: Electric dipole (a.u.)  =   -0.000000   -0.000000    0.000000
siesta: Electric dipole (Debye) =   -0.000000   -0.000000    0.000000

cite: Please see "siesta.bib" for an exhaustive BiBTeX file.
cite: Please clearly indicate Siesta version in published work: 5.2.1
cite: This calculation has made use of the following articles
cite: which are encouraged to be cited in a published work.
        Primary SIESTA paper
          DOI: www.doi.org/10.1088/0953-8984/14/11/302

Routine            Calls   Time/call    Tot.time        %
siesta                 1     239.539     239.539   100.00
Setup                  1       1.058       1.058     0.44
bands                  1       0.000       0.000     0.00
KSV_init               1       0.000       0.000     0.00
IterGeom               5      47.693     238.467    99.55
geom_init              5       7.324      36.619    15.29
state_init             5       0.089       0.444     0.19
hsparse                5       0.014       0.068     0.03
overlap                5       0.067       0.336     0.14
Setup_H0               5       4.302      21.511     8.98
naefs                 10       0.000       0.003     0.00
dnaefs                10       0.000       0.001     0.00
MolMec                10       0.000       0.000     0.00
kinefsm               10       0.058       0.578     0.24
nlefsm                10       0.198       1.983     0.83
DHSCF_Init             5       4.086      20.430     8.53
DHSCF1                 5       0.027       0.133     0.06
InitMesh               5       0.026       0.132     0.06
INITMESH               5       0.000       0.000     0.00
DHSCF2                 5       4.059      20.297     8.47
REMESH                 5       0.209       1.045     0.44
REORD                155       0.007       1.076     0.45
PHION                  5       3.223      16.114     6.73
COMM_BSC             175       0.005       0.908     0.38
POISON                45       0.243      10.915     4.56
fft                   90       0.089       7.978     3.33
setup_H               35       2.903     101.606    42.42
DHSCF                 40       3.935     157.385    65.70
DHSCF3                40       2.901     116.054    48.45
rhoofd                40       1.368      54.714    22.84
XC                    40       0.194       7.764     3.24
GXC-CellXC            40       0.166       6.637     2.77
gridxc@cellXC         40       0.166       6.637     2.77
vmat                  40       0.978      39.104    16.32
IterSCF               30       4.805     144.138    60.17
compute_dm            30       1.901      57.045    23.81
diagon                30       1.901      57.018    23.80
r-eigvec              30       0.791      23.727     9.91
r-buildHS             30       0.001       0.043     0.02
rdiag                 30       0.789      23.684     9.89
rdiag1                30       0.025       0.757     0.32
rdiag2                30       0.096       2.867     1.20
rdiag3                30       0.619      18.578     7.76
rdiag4                30       0.046       1.368     0.57
r-buildD              30       1.097      32.903    13.74
MIXER                 25       0.002       0.058     0.02
PostSCF                5      11.541      57.704    24.09
FINAL_HF               5      11.541      57.704    24.09
DHSCF4                 5       8.266      41.331    17.25
dfscf                  5       7.798      38.989    16.28
overfsm                5       0.052       0.260     0.11
writeHSX               5       0.003       0.015     0.01
state_analysis         5       0.000       0.002     0.00
siesta_move            5       0.000       0.001     0.00
Analysis               1       0.002       0.002     0.00
optical                1       0.000       0.000     0.00

>> End of run:  20-MAY-2025  16:44:54
Job completed